c is-sat
p cnf 10 68
-4 7 -5 0
-8 -2 10 0
-6 3 -5 0
-4 -9 -6 0
-9 4 -3 0
7 3 -5 0
-2 -3 9 0
6 2 -5 0
3 -9 -5 0
10 -4 -3 0
8 -6 -3 0
-1 2 -10 0
-2 -3 6 0
6 -1 -7 0
-8 -1 -6 0
-4 3 5 0
-4 -10 -3 0
2 -6 -9 0
-9 10 1 0
-6 8 -7 0
-8 6 -10 0
9 -8 4 0
1 3 7 0
-8 -9 10 0
-10 5 -4 0
8 7 -6 0
-8 -3 -4 0
-4 -6 -9 0
-6 7 3 0
-7 1 4 0
-9 -1 7 0
1 -7 -9 0
-2 -4 3 0
5 -3 10 0
-4 -2 -1 0
-7 -10 2 0
8 -9 1 0
-7 -8 -9 0
8 -10 -3 0
2 -4 -9 0
-1 2 -6 0
-10 -1 -3 0
7 -5 -9 0
-2 -7 -6 0
-8 -7 -5 0
-5 -8 -2 0
-6 -5 -8 0
-10 4 3 0
-9 -5 6 0
-7 6 -8 0
-1 2 -7 0
-6 1 -3 0
6 -4 -7 0
3 -4 -1 0
3 10 -8 0
-6 -1 -7 0
-4 -1 -5 0
2 6 4 0
-6 8 -9 0
-1 -8 -6 0
-6 7 9 0
5 -4 8 0
-8 4 6 0
4 5 -8 0
-1 -2 -3 0
-3 -1 -9 0
-1 2 -8 0
3 -2 -5 0
